14
name: 1-aminocyclopropane-1-carboxylic-acid-zwitterionic-conformer (Conformer 1); charge: 0; multiplicity: 1; smiles: [NH3+]C1(C(=O)[O-])CC1; energy: -362.096649; generated_by: Rowan; timestamp: 2026-07-21 15:10:27;
N    -1.16413669  -0.60065475   0.69284261
C    -0.08810498   0.09966817  -0.02049596
C    -0.56680517   1.44384213  -0.53809168
O     0.26538494   2.13095979  -1.16236415
O    -1.77118727   1.71055165  -0.27052644
C     1.32503158  -0.04864625   0.45704871
C     0.89533349  -0.69516398  -0.82565277
H    -0.93416274  -0.76793818   1.66929117
H    -1.40693662  -1.48373678   0.25095313
H    -1.96606474   0.04861787   0.63288377
H     1.50787275  -0.68609335   1.30814291
H     1.91716172   0.84972980   0.39636755
H     1.19850514  -0.23243548  -1.75049663
H     0.78810830  -1.76870052  -0.83990213
