21
name: 2-methylglutamic-acid-anionic-ωB97X-D3/def2-TZVP-opt (Step 30); charge: -1; multiplicity: 1; energy: -590.62358000; method: ωB97X-D3; basis_set: def2-TZVP; engine: PySCF; generated_by: Rowan; timestamp: 2026-07-29 21:16:35;
C    -2.21550074  -0.00335035   0.18398880
C    -0.72168327   0.29007252   0.12005166
N    -0.39967930   0.89548402  -1.20807193
C     0.09379982  -0.98940226   0.32617466
C     1.60953797  -0.83595618   0.47218886
C     2.44487715  -0.66621261  -0.80325279
O     1.88320832  -0.16789624  -1.82952095
O     3.63604113  -1.00788352  -0.74971852
C    -0.37636845   1.36968954   1.19394668
O    -0.45465626   1.00532942   2.37803733
O    -0.07419427   2.50560632   0.75621176
H    -2.79966818   0.89593633  -0.02438771
H    -2.49287936  -0.77439454  -0.53874930
H    -2.47367629  -0.35528021   1.18131989
H    -1.12163715   0.72828981  -1.90085134
H    -0.30248624   1.90268980  -1.02180969
H     0.54075553   0.49778148  -1.55937273
H    -0.28954519  -1.44380110   1.24019172
H    -0.13586040  -1.68496432  -0.48751087
H     2.00604075  -1.70862163   0.99199580
H     1.83971663   0.01803480   1.11862973
