16
name: 3-amino-3-methylbutyric-acid-zwitterionic-conformer (Conformer 1) (Step 6); charge: 0; multiplicity: 1; energy: -363.12688300; method: ωB97X-D3; basis_set: def2-TZVP; engine: Psi4; generated_by: Rowan; timestamp: 2026-07-22 21:21:35;
C    -0.14599864  -0.03591025  -1.53740694
C    -0.03122225   0.02498411  -0.02643367
C    -0.84673399  -1.05176335   0.67701000
N     1.40573889  -0.07003990   0.40989125
C    -0.46227553   1.40951904   0.54621512
O     0.37778101   1.94181326   1.33296601
O    -1.57659822   1.85494174   0.19859858
H     0.17518994  -0.98777415  -1.92046287
H     0.42250691   0.75981853  -2.00415873
H    -1.19244868   0.11534912  -1.80219166
H    -0.70896649  -0.99982941   1.75121245
H    -0.59834374  -2.03692849   0.32375564
H    -1.90026696  -0.85943112   0.47268536
H     1.41901992   0.72875311   1.09633774
H     1.64312988  -0.93918095   0.81880454
H     2.02901124   0.14470086  -0.33289534
