17
name: 3-amino-2-(hydroxy-methyl)propanoic-acid-zwitterionic-conformer (Conformer 1) (Step 21); charge: 0; multiplicity: 1; energy: -438.35767600; method: ωB97X-D3; basis_set: def2-TZVP; engine: Psi4; generated_by: Rowan; timestamp: 2026-07-22 21:22:23;
N     1.64331665  -0.03724669   0.56152310
C     0.43295643  -0.83631340   0.89999380
C    -0.63671259  -0.55298516  -0.15344641
C    -1.36972360   0.76127412   0.07614573
O    -0.40540680   1.78377150   0.33865006
C    -0.08746957  -0.63218292  -1.60176722
O    -0.93913931  -0.57507435  -2.52010992
O     1.17103770  -0.76607780  -1.78594036
H     2.42933896  -0.24580875   1.12779229
H     1.40649620   0.94037659   0.60155888
H     1.77691762  -0.29686961  -0.47246518
H     0.72004902  -1.87207242   0.85936608
H     0.10033824  -0.59419685   1.88827409
H    -1.38269887  -1.34685345  -0.10129771
H    -2.04996003   0.67208953   0.91621992
H    -1.94517907   0.99345662  -0.82560921
H    -0.80732106   2.63116976   0.19380974
