19
name: 3-amino-n-pentanoic-acid-zwitterionic-conformer (Conformer 1) (Step 17); charge: 0; multiplicity: 1; energy: -402.44591300; method: ωB97X-D3; basis_set: def2-TZVP; engine: Psi4; generated_by: Rowan; timestamp: 2026-07-22 21:19:51;
C    -1.55452983   1.26222877   0.99602669
C    -1.16702892   0.40923302  -0.20707337
C    -0.20259569  -0.72120322   0.14813276
N     0.08027172  -1.49168533  -1.10561398
C     1.14939513  -0.23174499   0.66318912
C     1.98096394   0.51398084  -0.39144997
O     1.86767048   0.14667753  -1.61683565
O     2.75658925   1.41129972   0.00565625
H    -2.30052230   1.99583539   0.71066059
H    -1.96372973   0.66297857   1.79880636
H    -0.69677020   1.81131594   1.38467045
H    -2.05233142  -0.01641460  -0.64825480
H    -0.70036916   1.04335105  -0.96326044
H    -0.65657202  -1.37685089   0.86200437
H    -0.72509104  -1.58752753  -1.67625968
H     0.46554933  -2.38602292  -0.91645666
H     0.85483147  -0.85664693  -1.57737078
H     1.75918417  -1.07079911   0.99141531
H     1.02462719   0.41754371   1.52698043
