19
name: 3-amino-2,2-dimethylpropanoic-acid-zwitterionic-conformer (Conformer 1) (Step 13); charge: 0; multiplicity: 1; energy: -402.44438200; method: ωB97X-D3; basis_set: def2-TZVP; engine: Psi4; generated_by: Rowan; timestamp: 2026-07-22 21:22:41;
C    -0.61979700   0.64374053  -1.66968792
C    -0.30946070   0.13848519  -0.26676569
C    -0.68230704   1.21365588   0.76840705
C     1.18617713  -0.21629266  -0.20012122
N     1.49206936  -0.88237836   1.09241656
C    -1.17393233  -1.10454639   0.07243234
O    -0.68999582  -1.96195777   0.90593256
O    -2.31206455  -1.20518605  -0.42505366
H    -1.68702057   0.89075219  -1.74886334
H    -0.40941396  -0.12070368  -2.42348064
H    -0.03913003   1.53237172  -1.90180722
H    -1.74343999   1.46295281   0.65475256
H    -0.10398391   2.11570804   0.61551027
H    -0.54582358   0.87233440   1.78949275
H     1.79165860   0.65701487  -0.33128946
H     1.41551990  -0.92324024  -0.97972919
H     2.32926570  -1.41022015   1.05896970
H     0.55336414  -1.53411998   1.18883722
H     1.53883281  -0.23544242   1.84438316
