16
name: 3-hydroxyaspartic-acid-anionic-ωB97X-D3/def2-TZVP-opt (Step 33); charge: -1; multiplicity: 1; energy: -587.21504700; method: ωB97X-D3; basis_set: def2-TZVP; engine: PySCF; generated_by: Rowan; timestamp: 2026-07-29 21:17:41;
N    -0.48625690   0.52249134  -1.34850405
C    -0.34244903  -0.60922106  -0.39457533
C    -1.75490897  -0.85607275   0.21203092
O    -1.80879284  -1.55520864   1.23418522
O    -2.69878345  -0.35431839  -0.44076884
C     0.77116223  -0.36717123   0.61104294
O     2.00749955  -0.81082798   0.07824888
C     0.91375463   1.10610100   1.06305990
O    -0.11181562   1.82742707   1.00205769
O     2.05488409   1.43671206   1.43449926
H    -0.43481942   1.38319281  -0.77806887
H    -1.44470686   0.45172979  -1.71204775
H     0.20548282   0.53238369  -2.09099612
H    -0.09061691  -1.49874974  -0.97410284
H     0.50795721  -0.95285706   1.49879362
H     2.65310026  -0.20039721   0.46769431
