16
name: 4-amino-n-pentanoic-acid-zwitterionic-conformer (Conformer 1) (Step 16); charge: 0; multiplicity: 1; energy: -363.12833900; method: ωB97X-D3; basis_set: def2-TZVP; engine: Psi4; generated_by: Rowan; timestamp: 2026-07-22 21:09:41;
N     1.37166006  -0.38084403   1.06192174
C     1.31366706   0.12183089  -0.33425290
C     0.01381810  -0.32303450  -0.99999956
C    -1.23778836   0.44462227  -0.56685097
C    -1.77135444   0.20951741   0.85020112
O    -3.00603488   0.35421184   1.02285525
O    -0.97269669  -0.08640881   1.81088225
H     0.33021514  -0.22548804   1.48744230
H     2.05698664   0.08446997   1.60593802
H     1.55322672  -1.35718117   1.08576290
H     1.35853062   1.19200248  -0.28860855
H     2.16283266  -0.23401584  -0.87195109
H    -0.13671086  -1.38479037  -0.84295996
H     0.13052330  -0.18676493  -2.06474831
H    -1.07100950   1.52350321  -0.64650074
H    -2.06987879   0.21613194  -1.24275739
