19
name: 4-amino-2-methylbutyric-acid-zwitterionic-conformer (Conformer 1) (Step 21); charge: 0; multiplicity: 1; energy: -402.44384500; method: ωB97X-D3; basis_set: def2-TZVP; engine: Psi4; generated_by: Rowan; timestamp: 2026-07-22 21:18:41;
C    -2.08880645  -0.39168561   1.00884178
C    -1.02469220   0.12330496   0.04089962
C     0.27384722   0.44843924   0.78803402
C     1.39360202   1.02321533  -0.08058823
N     2.14131687  -0.08632840  -0.73435332
C    -0.89759828  -0.89067870  -1.11400735
O    -1.90559063  -1.03990275  -1.84751299
O     0.19300080  -1.54071961  -1.29379160
H    -1.78276489  -1.34975281   1.45044499
H    -3.03913742  -0.56016712   0.47598777
H    -2.26747780   0.31592034   1.81928895
H    -1.40669219   1.03895232  -0.42510438
H     0.03607654   1.17327576   1.55257074
H     0.62610984  -0.43802496   1.30484204
H     2.07510736   1.60791303   0.49137547
H     0.98386971   1.63426193  -0.86199000
H     1.36421427  -0.80596300  -1.03592509
H     2.74892275  -0.53942088  -0.09484957
H     2.66424248   0.21599917  -1.52021086
