19
name: 4-amino-3-methylbutyric-acid-zwitterionic-conformer (Conformer 1) (Step 10); charge: 0; multiplicity: 1; energy: -402.45148600; method: ωB97X-D3; basis_set: def2-TZVP; engine: Psi4; generated_by: Rowan; timestamp: 2026-07-22 21:10:04;
C    -0.48628240  -0.32405652   1.47240234
C    -0.30064763   0.24033670   0.06687637
C    -0.97166103   1.59929286  -0.08679241
N    -0.89747661  -0.74822549  -0.89533737
C     1.19202604   0.30417275  -0.27504278
C     1.88224684  -1.06291747  -0.40058481
O     1.18915649  -2.05674931  -0.82814638
O     3.09676664  -1.12927072  -0.11174302
H    -0.01687838   0.33851673   2.18785276
H    -0.01142836  -1.30073892   1.56200493
H    -1.52701867  -0.41839825   1.72728446
H    -0.51204042   2.29935786   0.59323345
H    -2.01726303   1.53959122   0.14507936
H    -0.85225834   1.97581832  -1.08637530
H    -0.09380637  -1.52821521  -0.95179370
H    -1.01518319  -0.34917542  -1.79915788
H    -1.76653332  -1.10504112  -0.57522935
H     1.34395194   0.81238024  -1.22712370
H     1.72371087   0.88165591   0.48156861
