17
name: 4-amino-2-hydroxybutyric-acid-zwitterionic-conformer (Conformer 1) (Step 23); charge: 0; multiplicity: 1; energy: -438.36697700; method: ωB97X-D3; basis_set: def2-TZVP; engine: Psi4; generated_by: Rowan; timestamp: 2026-07-22 21:19:30;
N     1.69607948  -0.90503726   0.21569745
C     0.85014862  -0.81223529  -1.00383182
C    -0.60458857  -0.56747463  -0.62874464
C    -0.92782224   0.85172583  -0.14972256
O    -2.31540937   1.05328528  -0.26335097
C    -0.49246386   1.15713968   1.29830124
O     0.71079450   0.92061751   1.63763265
O    -1.36318656   1.64255875   2.05658703
H     1.39133145  -0.08122400   0.85720503
H     1.51810801  -1.74487167   0.71346996
H     2.66187050  -0.85051540   0.01119425
H     0.95271510  -1.71061644  -1.56469635
H     1.22541040   0.00458735  -1.58574318
H    -0.94789123  -1.28705872   0.10893405
H    -1.20543474  -0.72348559  -1.51888429
H    -0.40281795   1.58134372  -0.78552425
H    -2.56802114   1.44173650   0.60945514
