17
name: 4-amino-3-hydroxybutyric-acid-zwitterionic-conformer (Conformer 1) (Step 11); charge: 0; multiplicity: 1; energy: -438.35755100; method: ωB97X-D3; basis_set: def2-TZVP; engine: Psi4; generated_by: Rowan; timestamp: 2026-07-22 21:10:29;
N    -1.32422269  -0.35526313   1.00959382
C    -1.26708875  -0.18214994  -0.46823291
C     0.18556753  -0.35988382  -0.93074301
O     0.65349787  -1.57389863  -0.36187045
C     1.09968322   0.81445284  -0.57007217
C     1.24672966   0.83939891   0.94704873
O     0.40712137   1.54125354   1.59704175
O     2.04924962   0.01759303   1.46007946
H    -0.81931814  -1.19916016   1.23588389
H    -0.80412394   0.43740762   1.45318980
H    -2.24841985  -0.40410975   1.36168348
H    -1.87710914  -0.93801987  -0.91126754
H    -1.64784556   0.78825267  -0.71151193
H     0.17425694  -0.46883169  -2.00871220
H     1.41734131  -1.36226589   0.21265181
H     0.67474888   1.74887988  -0.92818190
H     2.07643127   0.65719108  -1.03586575
