19
name: 5-amino-n-pentanoic-acid-zwitterionic-conformer (Conformer 1) (Step 26); charge: 0; multiplicity: 1; energy: -402.44389300; method: ωB97X-D3; basis_set: def2-TZVP; engine: Psi4; generated_by: Rowan; timestamp: 2026-07-22 21:09:21;
N    -1.16516977   0.85999041   1.22124097
C    -0.49123039   1.40636025   0.01299494
C    -0.65903547   0.47881788  -1.18263561
C    -0.16196782  -0.96105787  -0.98373626
C     1.27035494  -1.08671829  -0.47892879
C     1.47213026  -0.92015918   1.03239523
O     2.65336486  -0.76598337   1.43731021
O     0.46209064  -0.95995287   1.82001179
H    -2.11153860   0.61782164   1.04813710
H    -1.12457397   1.50062454   1.98119622
H    -0.58758855  -0.01395811   1.51352827
H    -0.88158480   2.37596992  -0.19674336
H     0.55338420   1.50857326   0.27843007
H    -0.10712941   0.92818858  -1.99702559
H    -1.69205733   0.45793712  -1.48447632
H    -0.24393203  -1.46921289  -1.94096521
H    -0.81097390  -1.50560413  -0.29929089
H     1.65712324  -2.09702275  -0.69551072
H     1.95621242  -0.39327959  -0.98286092
