13
name: alanine-zwitterionic-conformer (Conformer 1) (Step 8); charge: 0; multiplicity: 1; energy: -323.80552200; method: ωB97X-D3; basis_set: def2-TZVP; engine: Psi4; generated_by: Rowan; timestamp: 2026-07-22 21:09:05;
C     1.24743376  -0.68453677  -0.14476318
C    -0.17093647  -0.16011540  -0.20910802
N    -0.24402911   1.31974858  -0.04608003
C    -1.13407472  -0.69888738   0.87407174
O    -1.12113141  -1.93032047   1.09152457
O    -1.86285515   0.18473121   1.41386331
H     1.87403069  -0.23412327  -0.89044119
H     1.22090843  -1.76112434  -0.30528731
H     1.67558430  -0.51281430   0.83684894
H    -0.61314005  -0.40175767  -1.16306004
H     0.53257380   1.65987468   0.46982509
H    -1.10147141   1.41125571   0.52960718
H    -0.30325405   1.80873110  -0.90094540
