17
name: allothreonine-zwitterionic-conformer (Conformer 1) (Step 19); charge: 0; multiplicity: 1; energy: -438.36158100; method: ωB97X-D3; basis_set: def2-TZVP; engine: Psi4; generated_by: Rowan; timestamp: 2026-07-22 20:47:02;
C    -1.84912976  -0.06589339   0.75841651
C    -0.71714818  -0.60728363  -0.09722955
O    -1.25883758  -0.91879646  -1.36158501
C     0.42288914   0.38868869  -0.29759986
N     1.07135399   0.76548020   0.98601978
C     1.59246843  -0.16098698  -1.15457782
O     1.30802168  -0.76585175  -2.21305941
O     2.73379958   0.06990939  -0.67841683
H    -2.64760056  -0.80227638   0.77487872
H    -1.54898354   0.12052459   1.76976928
H    -2.23739782   0.84498066   0.32031695
H    -0.30216372  -1.51286523   0.35574885
H    -0.49548776  -1.06215142  -1.97245946
H     0.04424871   1.27777354  -0.77786373
H     2.07047549   0.73632276   0.68813324
H     0.79973800   1.64775757   1.33101972
H     0.93427217   0.06568189   1.67613436
