22
name: alloisoleucine-zwitterionic-ωB97X-D3/def2-TZVP-opt (Step 11); charge: 0; multiplicity: 1; energy: -441.75826100; method: ωB97X-D3; basis_set: def2-TZVP; engine: Psi4; generated_by: Rowan; timestamp: 2026-07-22 21:08:48;
C    -1.89055982  -0.97457062  -0.56661711
C    -1.27982071   0.41717755  -0.46355800
C    -0.20169029   0.57308901   0.61911927
C     0.14141922   2.04681366   0.85283642
C     1.06534983  -0.25552542   0.39690316
N     1.63125923  -0.13053564  -0.97873249
C     0.93712444  -1.78911814   0.60275864
O     1.40799388  -2.48665596  -0.34853741
O     0.45130831  -2.18728054   1.68036746
H    -2.69993917  -0.99542316  -1.29313312
H    -1.16136832  -1.73656348  -0.86375855
H    -2.29742286  -1.29350754   0.40285539
H    -0.90870550   0.73236334  -1.43019249
H    -2.06497191   1.12696355  -0.22677389
H    -0.61521648   0.16446591   1.54751693
H     0.84325501   2.15234673   1.66887318
H     0.56943023   2.50117280  -0.02426226
H    -0.75322670   2.59982828   1.10814762
H     1.82187418   0.06502185   1.09767545
H     1.79443431  -1.15942578  -1.17344437
H     2.46733831   0.39318762  -1.02552935
H     0.96334268   0.23194716  -1.61965978
