16
name: alpha-aminobutyric-acid-zwitterionic-ωB97X-D3/def2-TZVP-opt (Step 29); charge: 0; multiplicity: 1; energy: -363.12368000; method: ωB97X-D3; basis_set: def2-TZVP; engine: Psi4; generated_by: Rowan; timestamp: 2026-07-22 21:54:42;
C    -1.17823598  -0.03736029   1.26561381
C    -1.11236333   0.08482942  -0.25533433
C     0.30504933   0.10834938  -0.80760856
N     1.06499847  -1.13896430  -0.49315753
C     1.18066678   1.23016668  -0.18789302
O     0.79794366   2.40805774  -0.35159570
O     2.21869882   0.82036684   0.41369244
H    -0.66027560   0.80702424   1.73755591
H    -0.73567041  -0.94785956   1.64317907
H    -2.20887897  -0.01759350   1.60068173
H    -1.67766133  -0.69674914  -0.73426502
H    -1.56270633   1.03390067  -0.55339863
H     0.29236055   0.25188942  -1.87519950
H     1.38404806  -1.61622811  -1.29715299
H     0.55708135  -1.75619193   0.09362731
H     1.86944887  -0.70564116   0.03584032
