21
name: alpha-aminoadipic-acid-anionic-ωB97X-D3/def2-TZVP (Step 32); charge: -1; multiplicity: 1; energy: -590.62060600; method: ωB97X-D3; basis_set: def2-TZVP; engine: PySCF; generated_by: Rowan; timestamp: 2026-07-27 13:05:47;
N    -1.03129827  -0.54032455  -1.49342000
C    -1.01839446  -1.05616318  -0.09380629
C     0.37689482  -1.01960632   0.53207235
C     0.89411598   0.35232572   0.96964275
C     1.03085185   1.42504328  -0.11913129
C     1.92363937   0.97223701  -1.27581980
O     3.12217392   1.29195954  -1.26643639
O     1.37098445   0.25923986  -2.17453690
C    -2.05428189  -0.24535388   0.72654686
O    -2.24941777  -0.63797989   1.88828630
O    -2.58438728   0.72737323   0.13812507
H    -1.37915719  -1.23263191  -2.14726313
H    -1.69548948   0.24804740  -1.46541064
H    -0.06050885  -0.19945705  -1.82349657
H    -1.35615902  -2.09117375  -0.12129144
H     0.33418129  -1.65832778   1.41531531
H     1.08184982  -1.49184460  -0.15740900
H     1.87256036   0.20352216   1.43492950
H     0.23763179   0.73956781   1.75416692
H     1.46618075   2.31878094   0.32828366
H     0.04325902   1.70074430  -0.49861743
