16
name: alpha-aminoisobutyric-acid-zwitterionic-conformer (Conformer 1) (Step 6); charge: 0; multiplicity: 1; energy: -363.12688400; method: ωB97X-D3; basis_set: def2-TZVP; engine: Psi4; generated_by: Rowan; timestamp: 2026-07-22 20:42:59;
C    -0.87608010  -0.03578295  -1.22934716
C    -0.02622262   0.02366389   0.03306839
C     0.21876061   1.43955486   0.51748862
N     1.27226147  -0.69864288  -0.20412066
C    -0.70903048  -0.86592473   1.11612842
O    -0.13304898  -1.97513342   1.32991295
O    -1.74599790  -0.42365227   1.65468032
H    -0.99606849  -1.05957945  -1.56564875
H    -1.86711490   0.34573172  -0.98278245
H    -0.46022772   0.56266125  -2.02057503
H     0.80296128   1.44415544   1.42994237
H    -0.74714497   1.88823223   0.74896234
H     0.70770367   2.03491491  -0.23241216
H     1.04636774  -1.60292551   0.28505842
H     1.49660164  -0.81617960  -1.16055194
H     2.02482246  -0.26439416   0.27707975
