22
name: aminocaproic-acid-zwitterionic-conformer (Conformer 1) (Step 11); charge: 0; multiplicity: 1; energy: -441.76041800; method: ωB97X-D3; basis_set: def2-TZVP; engine: Psi4; generated_by: Rowan; timestamp: 2026-07-22 20:40:12;
N     1.65141888   1.17135015  -0.35347172
C     1.67341963  -0.10464885  -1.11990791
C     1.32140314  -1.28354506  -0.21762183
C     0.05739642  -1.08260999   0.62674770
C    -1.23916703  -0.81989969  -0.15571234
C    -2.17601888   0.09374813   0.61949842
C    -1.71561180   1.55687605   0.67347070
O    -0.73211438   1.95349884  -0.04317974
O    -2.36529041   2.33809109   1.42148004
H     2.15611177   1.10774046   0.50034492
H     0.62200671   1.43896734  -0.14565242
H     2.02253479   1.92733907  -0.88196415
H     0.96078686   0.01649054  -1.91360658
H     2.63914536  -0.23230379  -1.54777440
H     1.20445144  -2.14724889  -0.85254314
H     2.14850377  -1.48958882   0.43743022
H    -0.07904782  -1.96110198   1.24802709
H     0.21170635  -0.26311733   1.32702796
H    -1.73893941  -1.76161926  -0.38086157
H    -1.03321569  -0.34692430  -1.11551504
H    -3.19193559   0.10987990   0.18412347
H    -2.30184955  -0.24311171   1.66179319
