27
name: arginine-cationic-ωB97X-D3/def2-TZVP-opt (Step 25); charge: 1; multiplicity: 1; energy: -607.15515900; method: ωB97X-D3; basis_set: def2-TZVP; engine: PySCF; generated_by: Rowan; timestamp: 2026-07-27 13:42:41;
N    -1.94197690   0.98505399  -0.80055391
C    -2.54024354  -0.07502345  -0.27684807
N    -3.84353224  -0.01668224   0.00335918
N    -1.87112857  -1.19761265  -0.02826722
C    -0.44192999  -1.37601534  -0.22865690
C     0.38463324  -0.84175665   0.94267966
C     1.89545052  -0.86159474   0.68425862
C     2.44891151   0.36364352  -0.04421912
N     2.27138042   1.59916871   0.78451175
C     1.69889113   0.61440082  -1.37308298
O     0.79854197   1.49918620  -1.31099171
O     1.99812369  -0.10726647  -2.32461032
H    -2.49011088   1.80334569  -0.99903747
H    -0.94045316   1.04398631  -0.99317363
H    -4.37162594   0.81378444  -0.19364048
H    -4.34660351  -0.82106830   0.33048664
H    -2.37211309  -1.94548465   0.42028489
H    -0.16207887  -0.92141444  -1.17885318
H    -0.27016461  -2.44564897  -0.34480908
H     0.16647230  -1.45401678   1.81897917
H     0.04162063   0.16742715   1.19196605
H     2.16230708  -1.73586501   0.08650790
H     2.43247420  -0.96714244   1.62942296
H     3.51155295   0.23467992  -0.23259603
H     2.14899138   1.41610766   1.77794981
H     3.05605822   2.23810438   0.68106000
H     1.43308530   2.05883264   0.38912171
