17
name: asparagine-zwitterionic-conformer (Conformer 1) (Step 12); charge: 0; multiplicity: 1; energy: -492.54791800; method: ωB97X-D3; basis_set: def2-TZVP; engine: Psi4; generated_by: Rowan; timestamp: 2026-07-22 20:38:07;
N     2.26660680  -0.02737615   1.02992505
C     1.20072152  -0.66414004   0.54000010
O     0.63596961  -1.58199216   1.13833576
C     0.68234505  -0.23727042  -0.81610288
C    -0.75297085   0.23751161  -0.67093674
N    -1.65296021  -0.77990916  -0.07225017
C    -0.88400148   1.47235052   0.26501292
O     0.05630644   2.29529394   0.24121937
O    -1.95549736   1.50690589   0.93087283
H     2.50848565   0.86994016   0.65535060
H     2.53250284  -0.23129684   1.97393982
H     0.76269325  -1.08448190  -1.47339028
H     1.24695670   0.58700642  -1.22850211
H    -1.16009268   0.54389352  -1.62013675
H    -2.34165839  -0.19315358   0.42215030
H    -2.05492957  -1.41571585  -0.71689531
H    -1.09909000  -1.28986559   0.62170043
