15
name: aspartic-acid-anionic-ωB97X-D3/def2-TZVP-opt (Step 16); charge: -1; multiplicity: 1; energy: -511.97925600; method: ωB97X-D3; basis_set: def2-TZVP; engine: PySCF; generated_by: Rowan; timestamp: 2026-07-27 13:44:09;
N    -0.90318663   0.87903302  -0.77239554
C    -0.58511164  -0.46512527  -0.22078855
C     0.90929178  -0.73465335  -0.31800306
C     1.80489214   0.34293513   0.31675963
O     1.37298219   1.53683930   0.28432127
O     2.89684601  -0.01601023   0.77951249
C    -1.15283793  -0.50613816   1.22571835
O    -2.01014779   0.36909218   1.49017311
O    -0.73339060  -1.41695209   1.95683758
H    -1.73942842   1.19760463  -0.27068936
H    -1.03797632   0.89673653  -1.77684959
H    -0.07288043   1.46822967  -0.47923602
H    -1.13874847  -1.21004671  -0.79433007
H     1.11654288  -1.69319553   0.15087944
H     1.20134268  -0.81744540  -1.36981145
