13
name: beta-alanine-zwitterionic-conformer (Conformer 1) (Step 10); charge: 0; multiplicity: 1; energy: -323.80765800; method: ωB97X-D3; basis_set: def2-TZVP; engine: Psi4; generated_by: Rowan; timestamp: 2026-07-22 20:34:39;
N    -0.95486088   0.69987562  -0.82849875
C    -0.29029310   0.82905176   0.49808670
C     0.29302894  -0.52738508   0.86923213
C     1.16914820  -1.12518658  -0.24252919
O     2.07780108  -1.91418972   0.09647429
O     0.89694461  -0.81197015  -1.45792236
H    -1.80934109   0.20079888  -0.76350848
H    -1.11335633   1.57163623  -1.26704040
H    -0.21369877   0.07153199  -1.36711583
H    -0.98032772   1.18740024   1.22766846
H     0.50120909   1.54560108   0.37935741
H    -0.49119446  -1.24977055   1.07940400
H     0.90064622  -0.44575898   1.76825618
