15
name: beta-(aminomethyl)-succinic-acid-zwitterionic-conformer (Conformer 1) (Initial structure) (Step 20); charge: -1; multiplicity: 1; energy: -511.97920200; method: ωB97X-D3; basis_set: def2-TZVP; engine: PySCF; generated_by: Rowan; timestamp: 2026-07-27 13:10:50;
N    -0.81773165  -0.99225657  -0.73684899
C    -0.73346879   0.23804461   0.09479008
C     0.32992232   0.07644184   1.17160890
C     1.71916571  -0.33411804   0.65490301
O     1.75056458  -1.06511203  -0.38373711
O     2.70663887   0.04217520   1.30144018
C    -0.48503397   1.42504888  -0.87778458
O    -0.75488654   1.19843850  -2.08046042
O    -0.08221304   2.48170971  -0.36634859
H    -1.12837688  -0.68204891  -1.66428137
H    -1.42441487  -1.70987549  -0.35669706
H     0.18985873  -1.31684807  -0.79715019
H    -1.70909502   0.40611446   0.55374580
H     0.41507973   1.01451238   1.71415793
H     0.01604192  -0.68523291   1.89234031
