16
name: beta-aminoisobutyric-acid-zwitterionic-conformer (Conformer 1) (Step 14); charge: 0; multiplicity: 1; energy: -363.12602000; method: ωB97X-D3; basis_set: def2-TZVP; engine: Psi4; generated_by: Rowan; timestamp: 2026-07-22 20:30:55;
C    -1.81204327  -0.56621382  -0.30272790
C    -0.44824123  -0.27377288   0.29769632
C     0.63299677  -0.26160278  -0.78739520
N     1.94208479   0.07543209  -0.17112586
C    -0.42293249   1.02821003   1.12818466
O     0.72630015   1.57590616   1.33088117
O    -1.48759502   1.47649780   1.59505130
H    -1.82513437  -1.52693291  -0.80625918
H    -2.57516477  -0.57135702   0.48547341
H    -2.09800443   0.20869532  -1.02046203
H    -0.20858907  -1.05901105   1.01541759
H     0.41045027   0.51151495  -1.50347238
H     0.68433209  -1.19972823  -1.29676385
H     2.59461336   0.42626120  -0.82802433
H     1.60239662   0.86250369   0.58422262
H     2.33597898  -0.69846276   0.30839382
