17
name: beta-isothreonine-zwitterionic-ωB97X-D3/def2-TZVP-opt (Step 21); charge: 0; multiplicity: 1; energy: -438.36618600; method: ωB97X-D3; basis_set: def2-TZVP; engine: Psi4; generated_by: Rowan; timestamp: 2026-07-22 20:26:30;
C    -1.69988536  -0.20674427  -0.83787194
C    -0.49350989  -0.35558738   0.06421029
N    -0.71568228   0.26271847   1.40544502
C     0.77556944   0.28898196  -0.50419161
O     1.06722887  -0.28490795  -1.74519713
C     1.97114113   0.09559899   0.45676368
O     1.77633850   0.34323655   1.68869679
O     3.03761778  -0.30125555  -0.05930007
H    -1.91733543   0.83301739  -1.01731899
H    -2.56345178  -0.68379971  -0.41882665
H    -1.47547486  -0.67293468  -1.79045209
H    -0.27592286  -1.39874474   0.24195340
H    -1.30434827  -0.28653340   1.97996475
H    -1.09706007   1.17513205   1.31563319
H     0.28099200   0.34427079   1.80294621
H     0.61925821   1.36769142  -0.61637330
H     2.02390540  -0.50824280  -1.67456782
