16
name: beta-aminobutyric-acid-zwitterionic-conformer (Conformer 1) (Step 16); charge: 0; multiplicity: 1; energy: -363.12971800; method: ωB97X-D3; basis_set: def2-TZVP; engine: Psi4; generated_by: Rowan; timestamp: 2026-07-22 20:33:21;
C    -1.49488117   0.64520950  -0.94707950
C    -0.33006331  -0.16916139  -0.42170575
N    -0.68930580  -0.93913676   0.80825361
C     0.90900996   0.65209418  -0.08585263
C     2.04211574  -0.16860891   0.55243176
O     1.73338010  -1.23779861   1.19027863
O     3.20802782   0.27201793   0.43695904
H    -2.33547347   0.02088308  -1.17364692
H    -1.79334089   1.38987691  -0.23136991
H    -1.19394843   1.14974281  -1.85079619
H    -0.04505583  -0.91850684  -1.14284316
H     0.31044454  -1.27268365   1.14207209
H    -1.29991446  -1.69584437   0.62089311
H    -1.08852474  -0.34943295   1.50180194
H     0.66848726   1.45771782   0.60732350
H     1.30576490   1.11769867  -0.98774242
