17
name: beta-homoserine-zwitterionic-ωB97X-D3/def2-TZVP (Step 16); charge: 0; multiplicity: 1; energy: -438.36032500; method: ωB97X-D3; basis_set: def2-TZVP; engine: Psi4; generated_by: Rowan; timestamp: 2026-07-22 20:28:42;
N     0.03193508   1.38978219   0.49234864
C    -0.54749492   0.32216773  -0.37647110
C    -1.05174701  -0.78102926   0.54387407
O    -1.85290002  -0.17406047   1.54029780
C     0.53884229  -0.20839607  -1.30224504
C     1.86258969  -0.53691725  -0.58906704
O     2.18420415   0.15000088   0.44334708
O     2.56563688  -1.44763465  -1.08033099
H     0.05752397   2.27518192   0.04446771
H    -0.50334019   1.44316709   1.33739435
H     1.04870206   1.01628961   0.66751640
H    -1.36711107   0.73714644  -0.92732138
H    -0.19974203  -1.29562792   0.98942887
H    -1.61294114  -1.49276782  -0.04578015
H    -2.03219957  -0.80510740   2.22214823
H     0.77728106   0.51225601  -2.08016725
H     0.19629510  -1.11198424  -1.80313903
