14
name: cysteine-zwitterionic-ωB97X-D3/def2-TZVP-opt (Step 11); charge: 0; multiplicity: 1; energy: -722.00626000; method: ωB97X-D3; basis_set: def2-TZVP; engine: Psi4; generated_by: Rowan; timestamp: 2026-07-22 20:21:07;
N    -0.98233915  -0.94994917   0.09583716
C    -0.04948268   0.08239021   0.60153513
C     1.30267397   0.08349387  -0.08752871
S     1.18578449  -0.01431920  -1.90058186
C    -0.86790142   1.39968870   0.48797581
O    -2.11416219   1.21674269   0.36787283
O    -0.24208560   2.47488306   0.58143017
H    -0.83735089  -1.03642796  -0.89556143
H    -0.92763556  -1.82797649   0.53861152
H    -1.88870843  -0.45451882   0.22720257
H     0.08379780  -0.06677394   1.65942152
H     1.77581865   1.03363269   0.15471952
H     1.92974204  -0.70911918   0.25494797
H     1.63554034  -1.23976946  -2.05240859
