16
name: gamma-aminobutyric-acid-zwitterionic-conformer (Conformer 1) (Step 16); charge: 0; multiplicity: 1; energy: -363.12842100; method: ωB97X-D3; basis_set: def2-TZVP; engine: Psi4; generated_by: Rowan; timestamp: 2026-07-22 20:19:11;
N    -1.73401090  -0.12664695   0.17781360
C    -0.84641708   0.78687209  -0.58487168
C     0.53968107   0.83293331   0.05323418
C     1.41626793  -0.39766481  -0.19471020
C     1.03851207  -1.70295343   0.51327287
O     1.97513709  -2.49375429   0.78350574
O    -0.18840996  -1.97398509   0.77623006
H    -2.02609251   0.28581937   1.03320198
H    -2.53694968  -0.39495750  -0.33763471
H    -1.09624747  -1.02695434   0.44360197
H    -1.28708502   1.75748069  -0.61742510
H    -0.78061497   0.40531252  -1.58443911
H     0.45077927   1.01056346   1.11846979
H     1.05448907   1.68983798  -0.35566547
H     1.44893864  -0.63472365  -1.26251956
H     2.45045016  -0.18656411   0.10085571
