20
name: glutamine-zwitterionic-conformer (Conformer 1) (Step 8); charge: 0; multiplicity: 1; energy: -531.87209300; method: ωB97X-D3; basis_set: def2-TZVP; engine: Psi4; generated_by: Rowan; timestamp: 2026-07-22 20:15:25;
N     2.97044660   0.17800624   0.15951976
C     1.76516870   0.00851554  -0.38034658
O     1.51860456  -0.94729306  -1.11711651
C     0.73358149   1.06093402  -0.03905990
C    -0.56903254   0.97622309  -0.83625480
C    -1.53343259  -0.12208171  -0.40308122
N    -1.09938271  -1.49609822  -0.78434103
C    -1.74261085  -0.18006743   1.13160605
O    -1.61782204  -1.32628441   1.65312513
O    -2.02134859   0.89998303   1.70258227
H     3.15686659   0.93157014   0.77362627
H     3.66862012  -0.51090289  -0.00454646
H     0.51375062   0.99106899   1.03213496
H     1.18211856   2.03404589  -0.18723938
H    -1.10410363   1.91167028  -0.68005453
H    -0.36579287   0.89782261  -1.89514040
H    -2.50810718   0.05979464  -0.83885717
H    -1.23583945  -2.00640055   0.11766049
H    -0.09645009  -1.47854107  -1.02186104
H    -1.63502268  -1.89606621  -1.52203214
