18
name: glutamic-acid-anionic-zwitterionic-conformer (Conformer 1) (Step 47); charge: -1; multiplicity: 1; energy: -551.30122900; method: ωB97X-D3; basis_set: def2-TZVP; engine: PySCF; generated_by: Rowan; timestamp: 2026-07-27 13:15:47;
N    -0.58032917  -0.95234784   1.22886592
C    -0.93420889  -0.72309940  -0.19800830
C     0.29499927  -0.41653632  -1.04837356
C     1.03513224   0.88383246  -0.71920755
C     2.05343091   0.83177776   0.42718735
O     3.05361903   1.56015947   0.34204651
O     1.80353990   0.06275275   1.40886410
C    -1.99639961   0.40891359  -0.24746696
O    -2.38183763   0.84639095   0.86260463
O    -2.36647909   0.75894837  -1.37965665
H     0.41484896  -0.57105755   1.40645833
H    -0.63291939  -1.92747029   1.49878587
H    -1.26781632  -0.39775788   1.75784913
H    -1.41171124  -1.62711609  -0.57719941
H     0.98575992  -1.26298217  -1.00259893
H    -0.06320304  -0.35995962  -2.07621464
H     1.56439789   1.23367152  -1.60528973
H     0.31455785   1.67181900  -0.47063622
