10
name: glycine-zwitterion-ωB97X-D3/def2-TZVP-opt (Step 8); charge: 0; multiplicity: 1; energy: -284.48509600; method: ωB97X-D3; basis_set: def2-TZVP; engine: Psi4; generated_by: Rowan; timestamp: 2026-07-22 20:12:27;
N    -1.08463152   0.18508190   0.23224591
C     0.14753321  -0.63472057   0.15583153
C     1.21763256   0.31679686  -0.42210862
O     0.79329105   1.48448296  -0.66879817
O     2.36180587  -0.15046546  -0.58218815
H    -1.81148181  -0.14699295  -0.34658644
H    -1.41085512   0.31512768   1.15440817
H    -0.68728949   1.08701098  -0.15164415
H     0.44931286  -0.97498116   1.12784537
H     0.01560641  -1.47486007  -0.49864698
