20
name: histidine-zwitterionic-ωB97X-D3/def2-TZVP-opt (Step 26); charge: 0; multiplicity: 1; energy: -548.86335000; method: ωB97X-D3; basis_set: def2-TZVP; engine: Psi4; generated_by: Rowan; timestamp: 2026-07-22 21:57:41;
N    -2.41118208  -0.87692923  -0.47815951
C    -1.16579737  -0.36075990   0.15462272
C    -0.10504246  -0.00732059  -0.89436878
C     1.27691738  -0.01402890  -0.33124517
C     2.38936395  -0.68859428  -0.72564501
N     3.46155302  -0.38076327   0.09634957
C     2.96416395   0.47587844   0.97578818
N     1.65758214   0.72677329   0.75181517
C    -1.65913151   0.83276378   1.02346775
O    -0.80641114   1.57618677   1.54506450
O    -2.90903649   0.91222794   1.11398776
H    -3.12130810  -0.37174979   0.08674659
H    -2.50708753  -1.85406068  -0.41963247
H    -2.49128092  -0.58175867  -1.41713844
H    -0.79136778  -1.11632147   0.81847513
H    -0.33357145   0.96173049  -1.31951647
H    -0.12095716  -0.72949946  -1.68314925
H     2.49775800  -1.37473534  -1.55229120
H     3.52065426   0.93056000   1.78919437
H     0.98156625   1.28188913   1.28927092
