17
name: homoserine-zwitterionic-ωB97X-D3/def2-TZVP-opt (Step 6); charge: 0; multiplicity: 1; energy: -438.35961000; method: ωB97X-D3; basis_set: def2-TZVP; engine: Psi4; generated_by: Rowan; timestamp: 2026-07-22 20:09:40;
N    -0.50287216  -1.21342902  -0.95499611
C    -0.85190341   0.17460436  -0.52743669
C     0.35896136   1.08305854  -0.41275003
C     1.33607611   0.63808863   0.65893388
O     1.87451962  -0.63147608   0.26947517
C    -1.64292265  -0.02354199   0.79243936
O    -1.87037222   1.00021040   1.47472665
O    -2.00012122  -1.21534266   1.02162688
H     0.43753594  -1.41647268  -0.63804583
H    -0.59735300  -1.38217657  -1.92741845
H    -1.16644146  -1.76416809  -0.37311846
H    -1.55948094   0.57510192  -1.23914074
H    -0.00749173   2.07324952  -0.14880705
H     0.86028459   1.15850628  -1.36549668
H     2.12803854   1.36959708   0.77027898
H     0.81225631   0.54679652   1.61537668
H     2.39753154  -0.97548407   0.98213529
