19
name: homocysteic-acid-anionic-ωB97X-D3/def2-TZVP-opt (Step 19); charge: -1; multiplicity: 1; energy: -986.63993300; method: ωB97X-D3; basis_set: def2-TZVP; engine: PySCF; generated_by: Rowan; timestamp: 2026-07-29 21:17:27;
N    -1.22052981   0.92688364   0.30867840
C    -0.82125513  -0.05408467  -0.73812070
C     0.12005367  -1.12054684  -0.20249843
C     1.29931335  -0.62410422   0.63484648
S     2.21969851   0.74209029  -0.05840686
O     2.45749569   0.41087714  -1.45560672
O     1.34892288   1.91826709   0.09961743
O     3.43087723   0.84240970   0.73892447
C    -2.11606734  -0.59600045  -1.39606767
O    -2.00061510  -1.62499937  -2.07865422
O    -3.13974022   0.09800912  -1.19566851
H    -1.42135300   0.47853790   1.20007232
H    -0.46042508   1.61304616   0.43092644
H    -2.10074530   1.33918441  -0.02354627
H    -0.30416012   0.53469017  -1.49836583
H     0.49280035  -1.66563435  -1.06781368
H    -0.44357932  -1.83924977   0.39838508
H     0.99325220  -0.29867589   1.63146772
H     2.01489672  -1.43515763   0.76858460
