26
name: hydroxylysine-cationic-ωB97X-D3/def2-TZVP-opt (Step 29); charge: 1; multiplicity: 1; energy: -572.84014100; method: ωB97X-D3; basis_set: def2-TZVP; engine: PySCF; generated_by: Rowan; timestamp: 2026-07-27 13:02:11;
N     1.59275873  -1.60528559  -0.44518271
C     2.12691253  -0.46784096  -1.23812894
C     1.75306983   0.87459118  -0.61855256
O     2.25032213   0.95935454   0.70959114
C     0.25045268   1.15865791  -0.59201360
C    -0.49509855   0.65784456   0.65589531
C    -1.90729817   0.21537257   0.31094311
N    -2.83558871   0.31792351   1.47538542
C    -2.03962710  -1.24306691  -0.20665941
O    -1.05759407  -1.72534643  -0.81736054
O    -3.13210680  -1.78641728   0.01573837
H     1.97929676  -2.48910749  -0.76678718
H     0.53867021  -1.65597378  -0.52683691
H     1.85526227  -1.49782278   0.53417484
H     3.21072977  -0.56832666  -1.27865058
H     1.73034471  -0.55007658  -2.24881049
H     2.22983470   1.62936107  -1.25072616
H     3.20234384   1.08864033   0.68513404
H     0.10131289   2.23644630  -0.66759773
H    -0.18707021   0.72357240  -1.49298248
H    -0.52974193   1.46372712   1.39047168
H     0.02456896  -0.16424641   1.14903142
H    -2.33201386   0.86231333  -0.45994919
H    -3.59366956  -0.35142001   1.27494021
H    -3.20800948   1.25503948   1.60710391
H    -2.38859361   0.03222247   2.34539170
