22
name: isoleucine-zwitterionic-ωB97X-D3/def2-TZVP-opt (Step 12); charge: 0; multiplicity: 1; energy: -441.75821000; method: ωB97X-D3; basis_set: def2-TZVP; engine: Psi4; generated_by: Rowan; timestamp: 2026-07-22 20:07:56;
C     2.09651525   0.45494127  -0.49626199
C     1.16598665   0.40307243   0.70822632
C     0.02730781  -0.62210041   0.60223851
C    -0.66955649  -0.82165208   1.95111522
C    -0.99315619  -0.34786612  -0.50464931
N    -1.50504160   1.05544762  -0.50645097
C    -0.51101147  -0.56072008  -1.96436627
O    -0.73870685   0.41662059  -2.74130001
O    -0.01412127  -1.67015229  -2.24763365
H     2.51696817  -0.53858302  -0.70511675
H     1.58802450   0.77647550  -1.41251921
H     2.92464697   1.13934492  -0.32465501
H     0.78138631   1.39153518   0.92419233
H     1.74534239   0.13567534   1.58535679
H     0.47871005  -1.57516878   0.30554361
H    -1.41800682  -1.59923398   1.88451521
H    -1.14717404   0.08125657   2.29159940
H     0.05275962  -1.11579235   2.70141126
H    -1.83584740  -1.01097210  -0.37724371
H    -1.39096425   1.26228889  -1.53651623
H    -2.44497966   1.14161200  -0.21529075
H    -0.92287717   1.66084618   0.02527295
