14
name: isoserine-zwitterionic-ωB97X-D3/def2-TZVP-opt (Step 4); charge: 0; multiplicity: 1; energy: -399.04388600; method: ωB97X-D3; basis_set: def2-TZVP; engine: Psi4; generated_by: Rowan; timestamp: 2026-07-29 21:17:53;
N     1.56358294   0.22040195   0.52855204
C     0.47811979  -0.78858276   0.39624009
C    -0.51372223  -0.28421489  -0.65294404
O    -1.50380079  -1.25335642  -0.84230653
C    -1.13772360   1.04729676  -0.18961475
O    -0.33012815   1.93761243   0.21408118
O    -2.38786596   1.12046315  -0.22477732
H     2.15835995   0.21313333  -0.26664193
H     1.04140757   1.13071643   0.54479601
H     2.10670095   0.09669460   1.34770787
H     0.87981589  -1.74239672   0.12437587
H    -0.01612511  -0.86257725   1.35039100
H     0.00679198  -0.08387489  -1.59336982
H    -2.34219430  -0.75023750  -0.73604084
