19
name: isovaline-zwitterionic-ωB97X-D3/def2-TZVP-opt (Step 6); charge: 0; multiplicity: 1; energy: -402.44472500; method: ωB97X-D3; basis_set: def2-TZVP; engine: Psi4; generated_by: Rowan; timestamp: 2026-07-22 20:53:30;
C     2.06669738   0.32898975   0.05559982
C     0.69567775   0.93310026  -0.23504258
C    -0.47899201  -0.03033071  -0.06445134
C    -1.81160291   0.60993029  -0.41398557
N    -0.50246340  -0.57559298   1.34030224
C    -0.23339689  -1.31460962  -0.91505204
O    -0.02798450  -2.37107826  -0.24442178
O    -0.26122606  -1.19079943  -2.15920847
H     2.84455527   1.06134895  -0.13139024
H     2.18048755  -0.01207951   1.07551285
H     2.25436127  -0.52780432  -0.60589410
H     0.66733714   1.24594484  -1.28120544
H     0.52159919   1.81440683   0.36319590
H    -2.61999191  -0.10824194  -0.32960293
H    -1.76963769   0.92943490  -1.45558312
H    -2.01612413   1.46526980   0.20546055
H    -0.18247458  -1.56112772   1.13957339
H     0.09590620  -0.09258090   1.96581950
H    -1.42539915  -0.61272481   1.70536713
