22
name: leucine-zwitterionic-ωB97X-D3/def2-TZVP-opt (Step 9); charge: 0; multiplicity: 1; energy: -441.75743800; method: ωB97X-D3; basis_set: def2-TZVP; engine: Psi4; generated_by: Rowan; timestamp: 2026-07-22 20:53:44;
C     1.18722594   1.22024766  -0.10958581
C     1.01822922  -0.27210776  -0.39146665
C     2.33834261  -1.00299709  -0.15053928
C    -0.07673957  -0.92334357   0.46727450
C    -1.46485882  -0.30755997   0.39204572
N    -1.91860632  -0.04957788  -1.00605469
C    -1.72315633   1.04234517   1.11100988
O    -1.27234352   1.17261400   2.27000571
O    -2.44537682   1.85292057   0.45713445
H     1.40691693   1.38584651   0.95687882
H     2.00878071   1.63465249  -0.69030279
H     0.29415231   1.81174253  -0.33341472
H     0.77507013  -0.40339168  -1.43793779
H     2.25696541  -2.06194658  -0.36564493
H     2.63971315  -0.89551303   0.89386759
H     3.13146603  -0.59129588  -0.76704737
H    -0.14738226  -1.96861035   0.21247528
H     0.21791101  -0.86407638   1.52096698
H    -2.17942802  -0.98702431   0.83298065
H    -1.15924321   0.29167542  -1.55572476
H    -2.56365128   0.74696814  -0.85453161
H    -2.33049827  -0.82721000  -1.45308388
