25
name: lysine-cationic-zwitterionic-conformer (Conformer 1) (Initial structure) (Step 32); charge: 1; multiplicity: 1; energy: -497.60490500; method: ωB97X-D3; basis_set: def2-TZVP; engine: PySCF; generated_by: Rowan; timestamp: 2026-07-27 13:03:55;
N     2.16386580   0.26847825  -1.34328407
C     1.73332952  -1.13081782  -1.05844754
C     1.48580470  -1.35118471   0.42539416
C     0.57086889  -0.32092681   1.08295161
C    -0.84446926  -0.26460596   0.49820557
C    -1.43814013   1.13168316   0.60291436
N    -2.93125246   1.10938897   0.57469797
C    -1.01227828   2.12011636  -0.51936842
O    -1.88250013   2.93764423  -0.86365624
O     0.15630059   2.03044990  -0.95569233
H     1.38723112   0.95224100  -1.14022357
H     2.98121526   0.52672317  -0.79347134
H     2.41892040   0.37285197  -2.32240294
H     0.83885110  -1.30148313  -1.65550723
H     2.51190690  -1.79798469  -1.42278209
H     2.44458726  -1.35755727   0.95019951
H     1.06723834  -2.35492339   0.53242259
H     0.50792445  -0.54378638   2.14959376
H     1.03209870   0.66718612   1.01934756
H    -0.85621992  -0.56409224  -0.55288180
H    -1.48039369  -0.97612835   1.03011156
H    -1.16293818   1.59069310   1.55473203
H    -3.28878486   0.36312043  -0.01935878
H    -3.19602840   2.01204202   0.14536176
H    -3.34865648   1.00695054   1.49581787
