20
name: methionine-zwitterionic-ωB97X-D3/def2-TZVP-opt (Step 19); charge: 0; multiplicity: 1; energy: -800.64541900; method: ωB97X-D3; basis_set: def2-TZVP; engine: Psi4; generated_by: Rowan; timestamp: 2026-07-22 20:54:29;
C    -2.89243564   0.41371167   0.24087489
S    -1.84365555  -0.98974435  -0.16343613
C    -0.58632130  -0.21566412  -1.21113894
C     0.37941971   0.73079909  -0.49801448
C     1.44388523   0.04210893   0.34203279
N     0.91690449  -0.80640734   1.44881972
C     2.34400712  -0.92465027  -0.47474604
O     2.82956486  -0.48783719  -1.53994085
O     2.51015989  -2.06494881   0.05067939
H    -3.67616420   0.03216715   0.87097940
H    -3.32955061   0.81411687  -0.65924302
H    -2.35850718   1.17796594   0.76787778
H    -0.03548181  -1.04638105  -1.66569312
H    -1.09120722   0.30094303  -2.01868110
H    -0.15057967   1.46383599   0.08265790
H     0.93269274   1.27219029  -1.26613867
H     2.10362513   0.78157551   0.76820516
H    -0.05657602  -1.03695113   1.28640974
H     1.03696782  -0.41694154   2.35034767
H     1.50006856  -1.66622074   1.30292067
