21
name: methionine-sulfoxide-zwitterionic-ωB97X-D3/def2-TZVP-opt (Step 14); charge: 0; multiplicity: 1; energy: -875.86805400; method: ωB97X-D3; basis_set: def2-TZVP; engine: Psi4; generated_by: Rowan; timestamp: 2026-07-29 21:17:02;
C     2.12575815   0.98249272   1.90287366
S     1.93986648  -0.19660131   0.58538067
O     1.92384862   0.59919428  -0.69182567
C     0.23619615  -0.66600275   0.87911935
C    -0.34311551  -1.43215203  -0.31991050
C    -1.17542285  -0.56869766  -1.25795707
N    -0.40953389   0.45239621  -2.02117201
C    -2.27615386   0.23615084  -0.51603998
O    -2.39653528   1.44234778  -0.87589516
O    -2.93339540  -0.38006998   0.35319842
H     2.05623071   0.46675314   2.84252599
H     1.36156232   1.74077602   1.81062402
H     3.10449064   1.41714036   1.79107308
H     0.22992069  -1.27372816   1.77170630
H    -0.34116733   0.23746279   1.08202582
H    -1.02448330  -2.18655404   0.06196645
H     0.43029631  -1.95122368  -0.86596521
H    -1.69034829  -1.20153820  -1.96830612
H    -1.04049121   1.27741031  -1.94107182
H     0.49256564   0.65863524  -1.55471647
H    -0.23937902   0.20152069  -2.96922548
