17
name: methylserine-zwitterionic-ωB97X-D3/def2-TZVP-opt (Step 6); charge: 0; multiplicity: 1; energy: -438.35801100; method: ωB97X-D3; basis_set: def2-TZVP; engine: Psi4; generated_by: Rowan; timestamp: 2026-07-22 20:54:56;
C    -0.76303618   0.79628878  -1.17909801
C    -0.17397681   0.18371531   0.07497428
N    -0.86848677  -1.09302263   0.43223373
C     1.31075571  -0.15028407  -0.05797604
O     1.42981619  -1.23158330  -0.96056809
C    -0.32523743   1.05854331   1.35135485
O    -0.75797426   0.43914088   2.36486022
O     0.03471355   2.25263546   1.26434192
H    -0.23631444   1.72873023  -1.38392270
H    -0.65102901   0.13602665  -2.02590552
H    -1.80988433   1.03904661  -1.03543600
H    -0.89135092  -1.02025336   1.46761043
H    -1.80808502  -1.09834785   0.10251630
H    -0.36881386  -1.88054304   0.07349860
H     1.70523523  -0.41567452   0.92127228
H     1.82496514   0.74688813  -0.40079109
H     2.33722653  -1.49622283  -1.00522310
