22
name: methionine-sulfone-zwitterionic-ωB97X-D3/def2-TZVP-opt (Step 10); charge: 0; multiplicity: 1; energy: -951.11460600; method: ωB97X-D3; basis_set: def2-TZVP; engine: Psi4; generated_by: Rowan; timestamp: 2026-07-29 21:17:14;
C     3.19687950  -0.04264987   0.85676213
S     1.72866761   0.07921417  -0.09154936
O     1.34200040   1.46882860  -0.13389474
O     1.92973630  -0.61931873  -1.33033644
C     0.49330177  -0.76673602   0.86262498
C    -0.79366465  -1.03026118   0.07510411
C    -1.34271660   0.10222210  -0.77908868
N    -1.45872848   1.42525912  -0.10872047
C    -2.77733870  -0.16469737  -1.31574412
O    -3.03660027  -1.31910151  -1.72156074
O    -3.54254717   0.84362265  -1.27866018
H     3.93317677   0.50475895   0.29496509
H     3.04321824   0.40906834   1.80956584
H     3.47680031  -1.07107912   0.93212563
H     0.91484287  -1.69946932   1.17459518
H     0.33512715  -0.15514646   1.72110347
H    -1.55442450  -1.36281371   0.76986810
H    -0.63620762  -1.85819990  -0.61796482
H    -0.70533478   0.25010615  -1.65356043
H    -0.63773743   1.98410172  -0.25773885
H    -1.63885756   1.33731639   0.86639083
H    -2.33572777   1.77682744  -0.55586969
