19
name: norvaline-zwitterionic-ωB97X-D3/def2-TZVP-opt (Step 42); charge: 0; multiplicity: 1; energy: -402.43324300; method: ωB97X-D3; basis_set: def2-TZVP; engine: Psi4; generated_by: Rowan; timestamp: 2026-07-22 20:55:17;
C     2.56347089  -0.02739426  -0.55833669
C     1.22542340   0.04571302   0.16546208
C     0.06444130   0.28824632  -0.79368752
C    -1.30976422   0.32443950  -0.12566918
N    -1.50688477   1.37707650   0.87191467
C    -1.66073801  -1.04398736   0.48493315
O    -2.29168839  -0.97167885   1.65351131
O    -1.41565278  -2.08275050  -0.05985677
H     2.56832763  -0.84370589  -1.28366928
H     2.77188990   0.89910520  -1.09918702
H     3.38421497  -0.19751632   0.14001287
H     1.05346570  -0.88764124   0.70937443
H     1.27579199   0.84161817   0.91758803
H     0.04871845  -0.50727821  -1.54142749
H     0.21472769   1.23126129  -1.32977663
H    -2.06463687   0.46932966  -0.90433906
H    -1.88181090   2.21919679   0.46251113
H    -2.34498282  -0.01558848   1.85762334
H    -0.64122914   1.61548300   1.33718129
