22
name: ornithine-cationic-conformer (Conformer 1) (Initial structure) (Step 25); charge: 1; multiplicity: 1; energy: -458.28438600; method: ωB97X-D3; basis_set: def2-TZVP; engine: PySCF; generated_by: Rowan; timestamp: 2026-07-27 13:11:49;
N     2.23484410  -0.95960307   0.24896421
C     1.35834866  -0.98761035  -0.95260668
C     0.71988846   0.36604519  -1.21753996
C    -0.03405241   1.01374095  -0.05330539
C    -1.14536733   0.15364665   0.55293754
N    -2.41065653   0.92192877   0.74463078
C    -0.82298727  -0.47771240   1.93631376
O    -1.76018476  -0.50510371   2.74858620
O     0.33526892  -0.92540005   2.09558795
H     2.89616584  -0.18666143   0.22289674
H     2.77193854  -1.81870484   0.33539277
H     1.59914284  -0.87597251   1.09275429
H     0.61390228  -1.76153323  -0.76457843
H     1.95473397  -1.29571788  -1.80844021
H     1.48732607   1.06611953  -1.55561227
H     0.03656839   0.22794700  -2.05857512
H     0.65767906   1.31502674   0.73630294
H    -0.46819496   1.93718246  -0.44059613
H    -1.39485150  -0.67486893  -0.11195964
H    -2.85773584   0.48130701   1.56703355
H    -2.23091802   1.89666811   0.97972181
H    -3.02814058   0.90096402  -0.06223476
