23
name: phenylalanine-zwitterionic-ωB97X-D3/def2-TZVP-opt (Step 8); charge: 0; multiplicity: 1; energy: -554.87141000; method: ωB97X-D3; basis_set: def2-TZVP; engine: Psi4; generated_by: Rowan; timestamp: 2026-07-22 20:55:58;
N     1.82508214  -0.20959559   1.15969735
C     1.95641396  -0.38040082  -0.31278927
C     0.72521840  -0.99681608  -0.96575851
C    -0.57409380  -0.44214607  -0.42301759
C    -0.91886290   0.89505988  -0.60494685
C    -2.10476804   1.39709210  -0.09082104
C    -2.96865611   0.56510669   0.60796359
C    -2.63440026  -0.76710042   0.78906089
C    -1.44390222  -1.26388765   0.28149088
C     2.34723890   1.04042444  -0.81206193
O     2.36901455   1.22667427  -2.04578441
O     2.67463619   1.84608584   0.10885466
H     0.86358197  -0.05088879   1.39851979
H     2.32416859   0.70488501   1.27385242
H     2.19637159  -0.94609299   1.70253387
H     2.82759944  -0.98757464  -0.50231076
H     0.73527335  -2.06558329  -0.83855998
H     0.81525271  -0.78535177  -2.03583553
H    -0.25527380   1.55712375  -1.16659923
H    -2.35331532   2.43935464  -0.24707670
H    -3.89387044   0.95408420   1.00116397
H    -3.30130202  -1.41830223   1.32343417
H    -1.19356015  -2.29418209   0.42574339
