20
name: pipecolic-acid-zwitterionic-ωB97X-D3/def2-TZVP-opt (Step 17); charge: 0; multiplicity: 1; energy: -440.55136300; method: ωB97X-D3; basis_set: def2-TZVP; engine: Psi4; generated_by: Rowan; timestamp: 2026-07-22 20:56:12;
O     2.93699812   0.13483660   0.31740457
C     2.03267867  -0.68938379   0.05229730
O     1.97214035  -1.91137907   0.38438650
C     0.85784067  -0.21924421  -0.84731827
C     0.39210016   1.21683908  -0.71638486
C    -0.41377162   1.45982653   0.55356170
C    -1.56315004   0.46034826   0.64036230
C    -1.01371590  -0.95137751   0.64102524
N    -0.20798459  -1.22917187  -0.58467881
H     1.20647714  -0.40045071  -1.85681773
H    -0.19311927   1.48428474  -1.58326564
H     1.29460048   1.83503385  -0.72428688
H     0.23978536   1.34579023   1.42467818
H    -0.78319820   2.47717730   0.56551848
H    -2.24238114   0.59795127  -0.18167449
H    -2.12511610   0.59845498   1.54898468
H    -0.32874144  -1.09546865   1.47039812
H    -1.77378117  -1.69940045   0.69493269
H    -0.78349395  -1.38162448  -1.37718954
H     0.38846264  -2.04647605  -0.36478512
