17
name: proline-zwitterionic-ωB97X-D3/def2-TZVP-opt (Step 9); charge: 0; multiplicity: 1; energy: -401.23170300; method: ωB97X-D3; basis_set: def2-TZVP; engine: Psi4; generated_by: Rowan; timestamp: 2026-07-22 20:57:27;
O     1.64902475   1.16975729  -1.32153499
C     1.88045213   0.20556869  -0.53250658
O     2.80993268  -0.63085210  -0.58667236
C     0.88748614   0.07160888   0.64895999
C     0.07089377  -1.21835846   0.61868860
C    -1.11119921  -0.85050706  -0.27670472
C    -1.44375770   0.57007962   0.15533633
N    -0.10241611   1.17334020   0.42624072
H     1.42274211   0.22431541   1.57218218
H     0.67402803  -2.03073344   0.21206361
H    -0.25001826  -1.49202855   1.60978433
H    -1.95329995  -1.50902253  -0.17508979
H    -0.79362001  -0.85825225  -1.31681308
H    -2.00062444   0.58770450   1.06248757
H    -1.94271918   1.15187073  -0.58879711
H     0.32084057   1.60622935  -0.42797549
H    -0.11561744   1.83261620   1.16527971
