17
name: s-methylcysteine-zwitterionic-ωB97X-D3/def2-TZVP-opt (Step 16); charge: 0; multiplicity: 1; energy: -761.32637800; method: ωB97X-D3; basis_set: def2-TZVP; engine: Psi4; generated_by: Rowan; timestamp: 2026-07-29 21:16:47;
C     1.98963488   0.92878776  -0.41046401
S     1.76089307  -0.60105669   0.50826615
C     0.24188570  -0.28218876   1.41954295
C    -1.02959755  -0.33796300   0.58086563
N    -1.01607763  -1.44100333  -0.41176016
C    -1.28346045   0.93970893  -0.26468045
O    -1.54463892   0.71899029  -1.48118849
O    -1.23445285   2.02903763   0.33932156
H     2.07561039   1.77319585   0.27566711
H     1.17046053   1.11950239  -1.10934669
H     2.91394243   0.82108760  -0.96810415
H     0.22388502  -1.01742711   2.20371445
H     0.28681227   0.70553454   1.87720108
H    -1.88149045  -0.45655564   1.22817707
H    -1.34967717  -0.92784779  -1.25753740
H    -1.58616651  -2.21479744  -0.18364581
H    -0.05867194  -1.72007461  -0.56650704
