13
name: sarcosine-zwitterionic-ωB97X-D3/def2-TZVP-opt (Step 10); charge: 0; multiplicity: 1; energy: -323.79511900; method: ωB97X-D3; basis_set: def2-TZVP; engine: Psi4; generated_by: Rowan; timestamp: 2026-07-22 20:57:44;
C    -1.53723054   0.44197090  -0.06750433
N    -0.40127516  -0.35647373  -0.57774202
C     0.61344562  -0.67087574   0.45348949
C     1.73560581   0.36693564   0.24253127
O     2.63980218   0.40095499   1.10467149
O     1.61348354   1.06366373  -0.80727354
H    -2.11024285  -0.14200831   0.61230598
H    -2.13397863   0.75998295  -0.89058967
H    -1.12068887   1.30090528   0.43069110
H     0.18611731   0.26292276  -1.18283211
H    -0.70204058  -1.16071313  -1.06869210
H     0.20183323  -0.60517730   1.44659198
H     1.02070903  -1.65568951   0.29619269
