14
name: serine-zwitterionic-ωB97X-D3/def2-TZVP-opt (Step 5); charge: 0; multiplicity: 1; energy: -399.03662100; method: ωB97X-D3; basis_set: def2-TZVP; engine: Psi4; generated_by: Rowan; timestamp: 2026-07-22 20:58:01;
N     0.89500685   0.99771047  -0.36344959
C     0.11828140   0.09989206   0.53523544
C    -1.12254510  -0.37497265  -0.19890713
O    -1.75750686   0.77061318  -0.73192360
C     1.05489700  -1.08972533   0.83340030
O     0.66141898  -1.91133136   1.69159416
O     2.10691724  -1.11276089   0.13641128
H     1.35503759   1.71524583   0.14956887
H     0.30549248   1.39766891  -1.06418836
H     1.62457460   0.35852815  -0.71864174
H    -0.15021615   0.63409618   1.43332721
H    -1.74708428  -0.91329310   0.51218309
H    -0.83315996  -1.06592817  -0.98833811
H    -2.51684727   0.50218533  -1.22918555
