13
name: taurine-zwitterionic-ωB97X-D3/def2-TZVP-opt (Step 2); charge: -1; multiplicity: 1; energy: -758.66825900; method: ωB97X-D3; basis_set: def2-TZVP; engine: Psi4; generated_by: Rowan; timestamp: 2026-07-22 20:58:18;
N    -1.74704067   0.43000950   0.71469020
C    -0.74423956  -0.61646409   0.59618570
C     0.18885387  -0.63318487  -0.61377350
S     1.49572657   0.60935357  -0.60491040
O     0.87185087   1.97444798  -0.54130587
O     2.26060641   0.43067959  -1.88473819
O     2.37269301   0.33692055   0.58306726
H    -2.41812537   0.38156570  -0.08165535
H    -1.25056290   1.35925676   0.61288862
H    -0.11442102  -0.56430170   1.54242010
H    -1.27421554  -1.60850353   0.62534646
H     0.73897053  -1.62766333  -0.65692311
H    -0.37700746  -0.48244527  -1.58676597
