17
name: threonine-zwitterionic-ωB97X-D3/def2-TZVP-opt (Step 20); charge: 0; multiplicity: 1; energy: -438.36106800; method: ωB97X-D3; basis_set: def2-TZVP; engine: Psi4; generated_by: Rowan; timestamp: 2026-07-22 20:58:47;
C     1.99793510   0.31148161  -0.11645889
C     0.73068387  -0.50071998  -0.29144645
O     0.60413068  -1.37300036   0.82897166
C    -0.53875723   0.33654238  -0.38000839
N    -0.88537282   0.88739217   0.95629677
C    -1.78698100  -0.49898406  -0.77414236
O    -2.79869461  -0.30211213  -0.04219399
O    -1.66848224  -1.26932020  -1.74739408
H     2.84599114  -0.36087186  -0.06758546
H     1.97523364   0.88781993   0.79338577
H     2.13335757   0.97830779  -0.95263170
H     0.78067158  -1.08226672  -1.21381344
H     0.04171150  -2.10868979   0.57220223
H    -0.43501109   1.13837540  -1.09145743
H    -1.91066877   0.67853266   0.97232597
H    -0.43819270   0.31472683   1.65149506
H    -0.68454327   1.84602557   1.08607726
