21
name: trans-5-hydroxy-L-pipecolic-acid-zwitterionic-ωB97X-D3/def2-TZVP-opt (Step 17); charge: 0; multiplicity: 1; energy: -515.78633000; method: ωB97X-D3; basis_set: def2-TZVP; engine: Psi4; generated_by: Rowan; timestamp: 2026-07-22 20:59:43;
O     2.70820849   0.62247802   1.30864652
C     2.25867055  -0.11416998   0.40195006
O     2.63170176  -1.28269445   0.08784435
C     1.13750411   0.45665791  -0.50739588
C     0.16251548   1.43900611   0.10459479
C    -0.84633369   0.76241964   1.02773503
C    -1.51508808  -0.41375287   0.32615699
O    -2.19420128  -0.01214256  -0.85381042
C    -0.46917846  -1.40963388  -0.12316982
N     0.48270952  -0.76030163  -1.06879810
H     1.66412209   0.92470228  -1.33180940
H    -0.35332208   1.96775071  -0.68248191
H     0.75772799   2.16534307   0.66118899
H    -1.58824402   1.47437464   1.35525110
H    -0.34213893   0.39398569   1.92212475
H    -2.18482836  -0.92006042   1.00372664
H    -2.85116695   0.62990145  -0.62915099
H    -0.90877121  -2.24287030  -0.63268345
H     0.11885698  -1.76594219   0.71274209
H     1.29458351  -1.38877091  -1.15034787
H     0.03411432  -0.57823488  -1.94076485
