18
name: trans-4-hydroxy-L-proline-zwitterionic-ωB97X-D3/def2-TZVP-opt (Step 13); charge: 0; multiplicity: 1; energy: -476.46499100; method: ωB97X-D3; basis_set: def2-TZVP; engine: Psi4; generated_by: Rowan; timestamp: 2026-07-22 20:59:03;
O    -2.62927478   0.84492486   0.21057695
C    -2.22765964  -0.21162022  -0.35905275
O    -2.84682467  -1.28515904  -0.53707586
C    -0.78146760  -0.15474852  -0.90068471
C     0.16301724  -1.19998659  -0.28560454
C     1.35103762  -0.38143013   0.21586841
O     2.22662445  -0.04198880  -0.84166478
C     0.69845737   0.91487867   0.64802218
N    -0.26126670   1.17659451  -0.45927060
H    -0.81505804  -0.19030135  -1.97919167
H     0.45169445  -1.95525032  -0.99835942
H    -0.33569490  -1.70150325   0.54149449
H     1.87051752  -0.85751218   1.02841956
H     2.58477496  -0.83504640  -1.21255263
H     1.37864252   1.73035602   0.75307779
H     0.12322101   0.78230002   1.54731061
H    -1.13880229   1.62025381  -0.11757988
H     0.16407574   1.68289056  -1.20280748
