27
name: tryptophan-zwitterionic-ωB97X-D3/def2-TZVP-opt (Step 7); charge: 0; multiplicity: 1; energy: -686.46089000; method: ωB97X-D3; basis_set: def2-TZVP; engine: Psi4; generated_by: Rowan; timestamp: 2026-07-22 21:00:02;
N    -2.36041327  -0.76136744   0.53826518
C    -2.38507102   0.66289084   0.11280593
C    -1.47950287   0.95980206  -1.08436797
C    -0.24309211   0.11184844  -1.16331621
C     0.03792406  -0.78912091  -2.14144188
N     1.25379893  -1.36841419  -1.93269553
C     1.80399178  -0.85008774  -0.79092149
C     3.01593559  -1.14871165  -0.17129171
C     3.31156735  -0.48405960   1.00334105
C     2.41827294   0.45754512   1.54707619
C     1.22011650   0.76008347   0.91935852
C     0.89239445   0.09647836  -0.27368867
C    -2.08825591   1.43989072   1.42344133
O    -1.90650155   2.67342957   1.33003584
O    -2.14869766   0.73707699   2.47705214
H    -3.09884086  -1.31728483   0.18693174
H    -1.47171190  -1.16343738   0.29425264
H    -2.39210250  -0.63034092   1.58104723
H    -3.40609900   0.92993812  -0.11909140
H    -1.22561679   2.02529300  -1.00298439
H    -2.03390413   0.83080387  -1.99967928
H    -0.54124919  -1.04381933  -2.99244308
H     1.68429964  -2.03219440  -2.52167078
H     3.69485643  -1.87118141  -0.58795458
H     4.24184283  -0.69068275   1.52054734
H     2.67110202   0.96511752   2.48050254
H     0.54130175   1.49590359   1.37366849
