24
name: tyrosine-zwitterionic-conformer-1-ωB97X-D3/def2-TZVP-opt (Step 8); charge: 0; multiplicity: 1; energy: -630.11257000; method: ωB97X-D3; basis_set: def2-TZVP; engine: Psi4; generated_by: Rowan; timestamp: 2026-07-22 21:08:02;
N    -1.84279390   0.96876946   1.04537794
C    -2.08566028  -0.44434821   0.64785930
C    -1.39002214  -0.83075760  -0.65294176
C     0.02330814  -0.29978440  -0.74485147
C     0.36073003   0.67729934  -1.67423367
C     1.65257559   1.16822555  -1.75931400
C     2.63312652   0.69224129  -0.90054042
O     3.88467959   1.20357355  -1.01463518
C     2.31529473  -0.28013896   0.03967233
C     1.02139835  -0.76655951   0.10546231
C    -1.65392110  -1.25761838   1.90320953
O    -1.61968107  -2.50011865   1.79381685
O    -1.44314038  -0.55647677   2.93674125
H    -1.74251539   0.84440127   2.08167124
H    -0.95115195   1.26741702   0.69486513
H    -2.54769817   1.60699432   0.77900357
H    -3.15091574  -0.59399308   0.56837117
H    -1.96033641  -0.47872828  -1.49558908
H    -1.39288350  -1.92506521  -0.68188737
H    -0.38570315   1.05115741  -2.34461507
H     1.91838654   1.91746217  -2.48721918
H     4.46897945   0.77888950  -0.39409648
H     3.06854089  -0.66191340   0.71051516
H     0.78917318  -1.54046626   0.83977175
