19
name: valine-zwitterionic-ωB97X-D3/def2-TZVP-opt (Step 18); charge: 0; multiplicity: 1; energy: -402.44232600; method: ωB97X-D3; basis_set: def2-TZVP; engine: Psi4; generated_by: Rowan; timestamp: 2026-07-22 21:08:25;
C     1.26849701   0.37717502  -1.46201880
C     0.73199688   0.38481248  -0.03016074
C     1.22947778  -0.80594528   0.78892934
C    -0.78692923   0.54089024   0.02358786
N    -1.50035234  -0.65666318  -0.52086569
C    -1.33206086   0.65367810   1.47073063
O    -0.96237890   1.63732983   2.14618489
O    -2.12302812  -0.27700578   1.81227450
H     2.35038740   0.37541206  -1.44559705
H     0.95348335  -0.49661396  -2.00689389
H     0.94142820   1.25305251  -2.00193580
H     1.10045797   1.28922084   0.46402777
H     0.85973569  -0.75059156   1.82020351
H     0.92921601  -1.75985241   0.37551150
H     2.31415076  -0.80014803   0.82822925
H    -1.09319812   1.41775014  -0.52467961
H    -0.88019773  -1.37432161  -0.81382626
H    -2.01841905  -0.93743155   0.35835700
H    -2.13638505  -0.43763257  -1.24604987
